
Log started (V12.6.3.0) Thu Jan 25 20:43:00 2018

New value for default parallel thread count: 1

Problem '/tmp/tmp4xBCRy.pyomo.lp' read.
Read time = 0.02 sec. (1.85 ticks)

Problem name         : /tmp/tmp4xBCRy.pyomo.lp
Objective sense      : Minimize
Variables            :   26743  [Nneg: 26521,  Binary: 221,  General Integer: 1]
Objective nonzeros   :       1
Linear constraints   :     673  [Less: 221,  Equal: 452]
  Nonzeros           :   79849
  RHS nonzeros       :     154

Variables            : Min LB: 0.000000         Max UB: 1.000000       
Objective nonzeros   : Min   : 1.000000         Max   : 1.000000       
Linear constraints   :
  Nonzeros           : Min   : 0.9000000        Max   : 5600.000       
  RHS nonzeros       : Min   : 0.1000000        Max   : 5446.000       
Tried aggregator 2 times.
MIP Presolve eliminated 501 rows and 26078 columns.
Aggregator did 28 substitutions.
Reduced MIP has 144 rows, 637 columns, and 1754 nonzeros.
Reduced MIP has 41 binaries, 0 generals, 0 SOSs, and 0 indicators.
Presolve time = 0.01 sec. (14.12 ticks)
Found incumbent of value 66.000000 after 0.02 sec. (20.77 ticks)
Probing fixed 1 vars, tightened 0 bounds.
Probing time = 0.00 sec. (0.09 ticks)
Tried aggregator 1 time.
MIP Presolve eliminated 0 rows and 1 columns.
Reduced MIP has 144 rows, 636 columns, and 1753 nonzeros.
Reduced MIP has 40 binaries, 0 generals, 0 SOSs, and 0 indicators.
Presolve time = 0.00 sec. (0.68 ticks)
Probing time = 0.00 sec. (0.07 ticks)
Clique table members: 3.
MIP emphasis: balance optimality and feasibility.
MIP search method: dynamic search.
Parallel mode: none, using 1 thread.
Root relaxation solution time = 0.00 sec. (1.16 ticks)

        Nodes                                         Cuts/
   Node  Left     Objective  IInf  Best Integer    Best Bound    ItCnt     Gap

*     0+    0                           66.0000       26.0000            60.61%
      0     0       28.8565     2       66.0000       28.8565      149   56.28%
*     0+    0                           30.0000       28.8565             3.81%
      0     0        cutoff             30.0000       28.8565      149    3.81%
Elapsed time = 0.02 sec. (24.29 ticks, tree = 0.01 MB, solutions = 2)

Root node processing (before b&c):
  Real time             =    0.02 sec. (25.21 ticks)
Sequential b&c:
  Real time             =    0.00 sec. (0.00 ticks)
                          ------------
Total (root+branch&cut) =    0.02 sec. (25.21 ticks)

Solution pool: 2 solutions saved.

MIP - Integer optimal solution:  Objective =  3.0000000000e+01
Solution time =    0.02 sec.  Iterations = 149  Nodes = 0
Deterministic time = 25.29 ticks  (1203.33 ticks/sec)


Incumbent solution written to file '/tmp/tmpSiXjRZ.cplex.sol'.
